K = 5;
L = 3;
Benefit = array2d(1..5, 1..2, [10, 10, 15, 20, 10, 15, 20, 15, 5, 15]);
Communication = array2d(1..5, 1..5, [0.0, 0.0, 1.0, 1.5, 0.0, 0.0, 0.0, 1.4, 1.2, 0.0, 1.0, 1.4, 0.0, 0.0, 2.0, 1.5, 1.2, 0.0, 2.0, 0.7, 0.0, 0.0, 2.0, 0.7, 0.0]);
Cost = array2d(1..3, 1..3, [5, 14, 13, 15, 5, 9, 13, 9, 10]);
